c nombre: 7
c densidad: 0.1
p edges 40 74
e 1 4
e 1 17
e 1 27
e 1 38
e 1 39
e 2 8
e 2 22
e 2 26
e 2 30
e 3 5
e 3 11
e 3 13
e 3 16
e 4 16
e 4 19
e 4 23
e 4 24
e 4 28
e 5 7
e 5 8
e 5 16
e 5 20
e 5 30
e 6 18
e 6 19
e 7 28
e 7 34
e 7 35
e 8 15
e 8 21
e 9 30
e 9 35
e 9 36
e 10 40
e 11 15
e 11 21
e 11 26
e 12 15
e 12 23
e 12 38
e 13 34
e 14 25
e 14 37
e 15 17
e 15 28
e 15 34
e 16 31
e 16 32
e 18 37
e 19 22
e 19 38
e 20 38
e 20 39
e 21 37
e 22 25
e 22 26
e 22 27
e 22 30
e 22 37
e 23 25
e 23 39
e 24 32
e 25 28
e 26 30
e 26 31
e 27 28
e 28 36
e 28 39
e 29 33
e 31 35
e 32 36
e 33 35
e 35 36
e 37 39
